************************************************************************
file with basedata            : mm42_.bas
initial value random generator: 2029796496
************************************************************************
projects                      :  1
jobs (incl. supersource/sink ):  12
horizon                       :  75
RESOURCES
  - renewable                 :  2   R
  - nonrenewable              :  2   N
  - doubly constrained        :  0   D
************************************************************************
PROJECT INFORMATION:
pronr.  #jobs rel.date duedate tardcost  MPM-Time
    1     10      0       17        3       17
************************************************************************
PRECEDENCE RELATIONS:
jobnr.    #modes  #successors   successors
   1        1          3           2   3   4
   2        3          3           6   9  11
   3        3          2           7  10
   4        3          2           5   9
   5        3          1           8
   6        3          1          10
   7        3          2           8   9
   8        3          1          11
   9        3          1          12
  10        3          1          12
  11        3          1          12
  12        1          0        
************************************************************************
REQUESTS/DURATIONS:
jobnr. mode duration  R 1  R 2  N 1  N 2
------------------------------------------------------------------------
  1      1     0       0    0    0    0
  2      1     1       9    3    3    0
         2     4       9    3    0    5
         3     6       9    2    3    0
  3      1     9       9    4    0    9
         2     9       9    3    0   10
         3    10       8    3    0    8
  4      1     1       7    5    8    0
         2     4       6    5    4    0
         3     4       6    4    0    7
  5      1     1       8    5    0    3
         2     1       6    6    6    0
         3     5       5    1    6    0
  6      1     4       4    5    7    0
         2     4       4    5    0    6
         3     8       3    4    6    0
  7      1     4       8    3    6    0
         2     7       5    3    0    1
         3     9       5    2    6    0
  8      1     3       9    5   10    0
         2     7       6    4    0    7
         3    10       6    4    3    0
  9      1     1       2    6    7    0
         2     4       2    4    6    0
         3    10       1    4    0   10
 10      1     2       8    8    9    0
         2     4       8    7    0    8
         3     7       7    7    0    7
 11      1     1       8    9    6    0
         2     2       5    7    6    0
         3     6       5    5    5    0
 12      1     0       0    0    0    0
************************************************************************
RESOURCEAVAILABILITIES:
  R 1  R 2  N 1  N 2
   17   11   34   33
************************************************************************
MAXIMAL LAGS:
from  to  type  delay
    1   12   ES      0
    1    2   ES      0
    2   12   ES      0
    1    3   ES      0
    3   12   ES      0
    1    4   ES      0
    4   12   ES      0
    1    5   ES      0
    5   12   ES      0
    1    6   ES      0
    6   12   ES      0
    1    7   ES      0
    7   12   ES      0
    1    8   ES      0
    8   12   ES      0
    1    9   ES      0
    9   12   ES      0
    1   10   ES      0
   10   12   ES      0
    1   11   ES      0
   11   12   ES      0
    1   12   ES      0
    2    6   SS     11
    2    6   SE     11
    2    6   ES     -2
    2    6   EE    -12
    2    9   SS     -8
    2    9   SE      2
    2    9   ES     -8
    2    9   EE      3
    2   11   SS     -2
    2   11   SE     -9
    2   11   ES      9
    2   11   EE      1
    3    7   SS     -4
    3    7   SE      4
    3    7   ES     11
    3    7   EE    -12
    3   10   SS      2
    3   10   SE     -8
    3   10   ES      8
    3   10   EE      2
    4    5   SS      8
    4    5   SE      6
    4    5   ES     -9
    4    5   EE    -11
    4    9   SS     -6
    4    9   SE     11
    4    9   ES     -6
    4    9   EE      1
    5    8   SS     10
    5    8   SE      5
    5    8   ES     12
    5    8   EE     -7
    6   10   SS      7
    6   10   SE      0
    6   10   ES     -6
    6   10   EE     -1
    7    8   SS     -6
    7    8   SE     -6
    7    8   ES      9
    7    8   EE      6
    7    9   SS    -12
    7    9   SE     -1
    7    9   ES     -1
    7    9   EE    -12
    8   11   SS     -3
    8   11   SE     -3
    8   11   ES      4
    8   11   EE     -9
************************************************************************
